p cnf 39 4
-1 -2 -4 -5 -19 -21 -22 -23 -24 -28 -29 -30 -36 -37 -38 -39 -40 -41 -45 -52 -54 -55 -56 -62 -63 -65 -66 -67 -68 -85 -88 0
-2 -4 -5 -6 -18 -37 -38 -46 -47 -55 -60 -63 0
-2 -6 -18 -37 -38 -46 -47 -55 -60 -63 -75 0
-2 -6 -18 -37 -38 -46 -47 -60 -63 -75 -83 -86 0
